c File: flat50_3_0.col
c
c SOURCE: Joseph Culberson (joe@cs.ualberta.ca)
c DESCRIPTION: Quasi-random coloring problem
c              generated with flatness = 0
c                             probability = 0.139
c                             known coloring = 3
c                             random seed = 1795
c              Creation Date:  Tue Jun  9 12:18:06 1998
c Maximum degree = 8 Minimum degree = 1
c p edge 50 115
c cnf created by edge2cnf
p cnf 150 545
-1 -2 0
-1 -3 0
-2 -3 0
1 2 3 0
-4 -5 0
-4 -6 0
-5 -6 0
4 5 6 0
-7 -8 0
-7 -9 0
-8 -9 0
7 8 9 0
-10 -11 0
-10 -12 0
-11 -12 0
10 11 12 0
-13 -14 0
-13 -15 0
-14 -15 0
13 14 15 0
-16 -17 0
-16 -18 0
-17 -18 0
16 17 18 0
-19 -20 0
-19 -21 0
-20 -21 0
19 20 21 0
-22 -23 0
-22 -24 0
-23 -24 0
22 23 24 0
-25 -26 0
-25 -27 0
-26 -27 0
25 26 27 0
-28 -29 0
-28 -30 0
-29 -30 0
28 29 30 0
-31 -32 0
-31 -33 0
-32 -33 0
31 32 33 0
-34 -35 0
-34 -36 0
-35 -36 0
34 35 36 0
-37 -38 0
-37 -39 0
-38 -39 0
37 38 39 0
-40 -41 0
-40 -42 0
-41 -42 0
40 41 42 0
-43 -44 0
-43 -45 0
-44 -45 0
43 44 45 0
-46 -47 0
-46 -48 0
-47 -48 0
46 47 48 0
-49 -50 0
-49 -51 0
-50 -51 0
49 50 51 0
-52 -53 0
-52 -54 0
-53 -54 0
52 53 54 0
-55 -56 0
-55 -57 0
-56 -57 0
55 56 57 0
-58 -59 0
-58 -60 0
-59 -60 0
58 59 60 0
-61 -62 0
-61 -63 0
-62 -63 0
61 62 63 0
-64 -65 0
-64 -66 0
-65 -66 0
64 65 66 0
-67 -68 0
-67 -69 0
-68 -69 0
67 68 69 0
-70 -71 0
-70 -72 0
-71 -72 0
70 71 72 0
-73 -74 0
-73 -75 0
-74 -75 0
73 74 75 0
-76 -77 0
-76 -78 0
-77 -78 0
76 77 78 0
-79 -80 0
-79 -81 0
-80 -81 0
79 80 81 0
-82 -83 0
-82 -84 0
-83 -84 0
82 83 84 0
-85 -86 0
-85 -87 0
-86 -87 0
85 86 87 0
-88 -89 0
-88 -90 0
-89 -90 0
88 89 90 0
-91 -92 0
-91 -93 0
-92 -93 0
91 92 93 0
-94 -95 0
-94 -96 0
-95 -96 0
94 95 96 0
-97 -98 0
-97 -99 0
-98 -99 0
97 98 99 0
-100 -101 0
-100 -102 0
-101 -102 0
100 101 102 0
-103 -104 0
-103 -105 0
-104 -105 0
103 104 105 0
-106 -107 0
-106 -108 0
-107 -108 0
106 107 108 0
-109 -110 0
-109 -111 0
-110 -111 0
109 110 111 0
-112 -113 0
-112 -114 0
-113 -114 0
112 113 114 0
-115 -116 0
-115 -117 0
-116 -117 0
115 116 117 0
-118 -119 0
-118 -120 0
-119 -120 0
118 119 120 0
-121 -122 0
-121 -123 0
-122 -123 0
121 122 123 0
-124 -125 0
-124 -126 0
-125 -126 0
124 125 126 0
-127 -128 0
-127 -129 0
-128 -129 0
127 128 129 0
-130 -131 0
-130 -132 0
-131 -132 0
130 131 132 0
-133 -134 0
-133 -135 0
-134 -135 0
133 134 135 0
-136 -137 0
-136 -138 0
-137 -138 0
136 137 138 0
-139 -140 0
-139 -141 0
-140 -141 0
139 140 141 0
-142 -143 0
-142 -144 0
-143 -144 0
142 143 144 0
-145 -146 0
-145 -147 0
-146 -147 0
145 146 147 0
-148 -149 0
-148 -150 0
-149 -150 0
148 149 150 0
-64 -1 0
-65 -2 0
-66 -3 0
-82 -1 0
-83 -2 0
-84 -3 0
-103 -1 0
-104 -2 0
-105 -3 0
-70 -4 0
-71 -5 0
-72 -6 0
-73 -4 0
-74 -5 0
-75 -6 0
-142 -4 0
-143 -5 0
-144 -6 0
-64 -7 0
-65 -8 0
-66 -9 0
-85 -7 0
-86 -8 0
-87 -9 0
-91 -7 0
-92 -8 0
-93 -9 0
-115 -7 0
-116 -8 0
-117 -9 0
-142 -7 0
-143 -8 0
-144 -9 0
-55 -10 0
-56 -11 0
-57 -12 0
-58 -10 0
-59 -11 0
-60 -12 0
-73 -10 0
-74 -11 0
-75 -12 0
-76 -10 0
-77 -11 0
-78 -12 0
-103 -10 0
-104 -11 0
-105 -12 0
-112 -10 0
-113 -11 0
-114 -12 0
-136 -10 0
-137 -11 0
-138 -12 0
-55 -13 0
-56 -14 0
-57 -15 0
-58 -13 0
-59 -14 0
-60 -15 0
-67 -13 0
-68 -14 0
-69 -15 0
-130 -13 0
-131 -14 0
-132 -15 0
-136 -13 0
-137 -14 0
-138 -15 0
-67 -16 0
-68 -17 0
-69 -18 0
-97 -16 0
-98 -17 0
-99 -18 0
-109 -16 0
-110 -17 0
-111 -18 0
-130 -16 0
-131 -17 0
-132 -18 0
-142 -16 0
-143 -17 0
-144 -18 0
-58 -19 0
-59 -20 0
-60 -21 0
-85 -19 0
-86 -20 0
-87 -21 0
-97 -19 0
-98 -20 0
-99 -21 0
-100 -19 0
-101 -20 0
-102 -21 0
-133 -19 0
-134 -20 0
-135 -21 0
-79 -22 0
-80 -23 0
-81 -24 0
-82 -22 0
-83 -23 0
-84 -24 0
-91 -22 0
-92 -23 0
-93 -24 0
-130 -22 0
-131 -23 0
-132 -24 0
-133 -22 0
-134 -23 0
-135 -24 0
-52 -25 0
-53 -26 0
-54 -27 0
-103 -25 0
-104 -26 0
-105 -27 0
-127 -25 0
-128 -26 0
-129 -27 0
-136 -25 0
-137 -26 0
-138 -27 0
-67 -28 0
-68 -29 0
-69 -30 0
-112 -28 0
-113 -29 0
-114 -30 0
-139 -28 0
-140 -29 0
-141 -30 0
-142 -28 0
-143 -29 0
-144 -30 0
-145 -28 0
-146 -29 0
-147 -30 0
-64 -31 0
-65 -32 0
-66 -33 0
-76 -31 0
-77 -32 0
-78 -33 0
-79 -31 0
-80 -32 0
-81 -33 0
-82 -31 0
-83 -32 0
-84 -33 0
-121 -31 0
-122 -32 0
-123 -33 0
-130 -31 0
-131 -32 0
-132 -33 0
-55 -34 0
-56 -35 0
-57 -36 0
-64 -34 0
-65 -35 0
-66 -36 0
-91 -34 0
-92 -35 0
-93 -36 0
-109 -34 0
-110 -35 0
-111 -36 0
-112 -34 0
-113 -35 0
-114 -36 0
-127 -34 0
-128 -35 0
-129 -36 0
-55 -37 0
-56 -38 0
-57 -39 0
-91 -37 0
-92 -38 0
-93 -39 0
-103 -37 0
-104 -38 0
-105 -39 0
-124 -37 0
-125 -38 0
-126 -39 0
-124 -40 0
-125 -41 0
-126 -42 0
-139 -40 0
-140 -41 0
-141 -42 0
-148 -40 0
-149 -41 0
-150 -42 0
-109 -43 0
-110 -44 0
-111 -45 0
-52 -46 0
-53 -47 0
-54 -48 0
-58 -46 0
-59 -47 0
-60 -48 0
-61 -46 0
-62 -47 0
-63 -48 0
-76 -46 0
-77 -47 0
-78 -48 0
-73 -49 0
-74 -50 0
-75 -51 0
-76 -49 0
-77 -50 0
-78 -51 0
-112 -49 0
-113 -50 0
-114 -51 0
-118 -49 0
-119 -50 0
-120 -51 0
-139 -49 0
-140 -50 0
-141 -51 0
-148 -49 0
-149 -50 0
-150 -51 0
-142 -52 0
-143 -53 0
-144 -54 0
-115 -55 0
-116 -56 0
-117 -57 0
-130 -55 0
-131 -56 0
-132 -57 0
-106 -58 0
-107 -59 0
-108 -60 0
-115 -58 0
-116 -59 0
-117 -60 0
-148 -58 0
-149 -59 0
-150 -60 0
-115 -61 0
-116 -62 0
-117 -63 0
-121 -61 0
-122 -62 0
-123 -63 0
-136 -61 0
-137 -62 0
-138 -63 0
-145 -61 0
-146 -62 0
-147 -63 0
-133 -64 0
-134 -65 0
-135 -66 0
-136 -64 0
-137 -65 0
-138 -66 0
-127 -70 0
-128 -71 0
-129 -72 0
-130 -73 0
-131 -74 0
-132 -75 0
-142 -76 0
-143 -77 0
-144 -78 0
-115 -79 0
-116 -80 0
-117 -81 0
-139 -79 0
-140 -80 0
-141 -81 0
-145 -79 0
-146 -80 0
-147 -81 0
-103 -82 0
-104 -83 0
-105 -84 0
-118 -82 0
-119 -83 0
-120 -84 0
-142 -82 0
-143 -83 0
-144 -84 0
-148 -82 0
-149 -83 0
-150 -84 0
-109 -85 0
-110 -86 0
-111 -87 0
-124 -85 0
-125 -86 0
-126 -87 0
-139 -85 0
-140 -86 0
-141 -87 0
-139 -88 0
-140 -89 0
-141 -90 0
-106 -91 0
-107 -92 0
-108 -93 0
-121 -91 0
-122 -92 0
-123 -93 0
-124 -91 0
-125 -92 0
-126 -93 0
-148 -91 0
-149 -92 0
-150 -93 0
-118 -94 0
-119 -95 0
-120 -96 0
-139 -94 0
-140 -95 0
-141 -96 0
-124 -97 0
-125 -98 0
-126 -99 0
-133 -97 0
-134 -98 0
-135 -99 0
-103 -100 0
-104 -101 0
-105 -102 0
-124 -100 0
-125 -101 0
-126 -102 0
-127 -100 0
-128 -101 0
-129 -102 0
-145 -100 0
-146 -101 0
-147 -102 0
